70
    1    24    17
    2    18    12
    3    41    40
    4    65    59
    5     5    12
    6    25    21
    7    28    27
    8    33    29
    9    18    17
   10    35    42
   11     5     9
   12    24    17
   13    75    68
   14    29    26
   15    41    40
   16    27    22
   17    51    55
   18    48    48
   19    11    11
   20    35    28
   21     1     5
   22     1     5
   23    54    48
   24    11    16
   25    42    38
   26    70    64
   27    21    20
   28    50    57
   29    45    51
   30    48    49
   31    60    59
   32    23    19
   33    23    17
   34    60    55
   35    59    52
   36    33    29
   37    66    66
   38    24    26
   39    50    52
   40    30    28
   41    41    41
   42    45    49
   43    14    10
   44    58    53
   45     2     5
   46    69    68
   47    64    59
   48    69    65
   49    57    61
   50    37    30
   51    54    50
   52    63    58
   53    55    55
   54    48    44
   55    32    36
   56    12     7
   57    66    67
   58    38    36
   59    17    12
   60    71    66
   61     9    14
   62    51    46
   63    37    33
   64    34    30
   65    60    63
   66    29    28
   67    46    52
   68    57    50
   69     7     8
   70     3     9
71
